sat
(:added-eqs                   15112
 :arith-bound-propagations-lp 52203
 :arith-conflicts             818
 :arith-fixed-eqs             4278
 :arith-lower                 75969
 :arith-make-feasible         33668
 :arith-max-columns           870
 :arith-max-rows              441
 :arith-offset-eqs            11020
 :arith-upper                 58173
 :binary-propagations         90588
 :conflicts                   1092
 :decisions                   22985
 :del-clause                  92
 :final-checks                1
 :max-memory                  31.38
 :memory                      21.02
 :minimized-lits              8218
 :mk-bool-var                 3799
 :mk-clause                   1833
 :mk-clause-binary            5316
 :num-allocs                  61787588
 :num-checks                  1
 :propagations                112005
 :restarts                    4
 :rlimit-count                2190721
 :solve-eqs-elim-vars         355
 :solve-eqs-steps             2203
 :time                        1.02
 :total-time                  1.05)
